
Log started (V11.0.0) Tue May 13 12:11:57 2008

Tried aggregator 1 time.
Reduced MIP has 110 rows, 1001 columns, and 2010 nonzeros.
Presolve time =    0.01 sec.
Clique table members: 100.
MIP emphasis: balance optimality and feasibility.
MIP search method: dynamic search.
Parallel mode: none, using 1 thread.
Root relaxation solution time =    0.02 sec.

        Nodes                                         Cuts/
   Node  Left     Objective  IInf  Best Integer     Best Node    ItCnt     Gap

*     0+    0                        10978.0000     1013.3881      147   90.77%
*     0+    0                         1024.0000     1013.3881      147    1.04%
      0     0     1014.0000    19     1024.0000      Fract: 6      154    0.98%
*     0+    0                         1023.0000     1014.0000      154    0.88%
      0     0     1014.0000    20     1023.0000     Covers: 3      200    0.88%
      0     0     1014.0000    20     1023.0000     Covers: 2      204    0.88%
*     0+    0                         1021.0000     1014.0000      204    0.69%
      0     2     1014.0000    20     1021.0000     1014.0000      204    0.69%
    100    48     1016.0000    12     1021.0000     1014.0000     2620    0.69%
    200    92     1018.1758    19     1021.0000     1014.0000     5792    0.69%
*   254+   48                         1017.0000     1014.0000     7324    0.29%
    300    93     1015.0000    16     1017.0000     1014.0000     8199    0.29%
    400   153    infeasible           1017.0000     1014.0000    11526    0.29%
*   493+  136                         1016.0000     1015.0000    15406    0.10%
    500   138     1015.0000    14     1016.0000     1015.0000    15310    0.10%
    600   149    infeasible           1016.0000     1015.0000    17005    0.10%
*   700     0      integral     0     1015.0000     1015.0000    22337    0.00%

Cover cuts applied:  54
Mixed integer rounding cuts applied:  3
Gomory fractional cuts applied:  11

Solution pool: 7 solutions saved.

MIP - Integer optimal solution:  Objective = 1.0150000000e+003
Solution time =    2.98 sec.  Iterations = 22337  Nodes = 701


Incumbent solution
Variable Name           Solution Value
Cmax                       1015.000000
X_1_2                         1.000000
X_2_2                         1.000000
X_3_7                         1.000000
X_4_7                         1.000000
X_5_10                        1.000000
X_6_9                         1.000000
X_7_2                         1.000000
X_8_3                        -0.000000
X_8_9                         1.000000
X_9_8                         1.000000
X_10_8                        1.000000
X_11_8                        1.000000
X_12_1                        1.000000
X_13_5                        1.000000
X_14_6                        1.000000
X_15_7                        1.000000
X_15_9                       -0.000000
X_16_6                        1.000000
X_17_8                        1.000000
X_18_5                        1.000000
X_19_3                        1.000000
X_19_7                       -0.000000
X_20_5                        1.000000
X_21_10                       1.000000
X_22_9                        1.000000
X_23_5                        1.000000
X_24_9                        1.000000
X_25_4                        1.000000
X_26_1                        1.000000
X_27_7                        1.000000
X_28_3                        1.000000
X_29_4                        1.000000
X_30_4                        1.000000
X_31_4                        1.000000
X_32_3                        1.000000
X_33_6                        1.000000
X_34_3                        1.000000
X_35_4                        1.000000
X_36_3                        1.000000
X_37_4                        1.000000
X_38_8                        1.000000
X_39_3                        1.000000
X_40_10                       1.000000
X_41_5                        1.000000
X_42_8                        1.000000
X_43_9                        1.000000
X_44_1                        1.000000
X_45_1                        1.000000
X_46_7                        1.000000
X_47_4                        1.000000
X_48_10                       1.000000
X_49_5                        1.000000
X_50_9                        1.000000
X_51_3                       -0.000000
X_51_4                        1.000000
X_52_10                       1.000000
X_53_8                        1.000000
X_54_2                        1.000000
X_55_1                        1.000000
X_56_4                       -0.000000
X_56_8                        1.000000
X_57_3                        1.000000
X_58_2                        1.000000
X_59_9                        1.000000
X_60_1                        1.000000
X_61_6                        1.000000
X_62_2                        1.000000
X_62_4                        0.000000
X_63_9                        1.000000
X_64_6                        1.000000
X_65_3                        1.000000
X_66_10                       1.000000
X_67_10                       1.000000
X_68_3                        1.000000
X_68_6                        0.000000
X_69_7                        1.000000
X_70_9                        1.000000
X_71_1                        1.000000
X_72_2                        1.000000
X_73_2                        1.000000
X_73_7                       -0.000000
X_74_5                        1.000000
X_75_1                        1.000000
X_76_2                        1.000000
X_77_8                        1.000000
X_78_5                        1.000000
X_79_4                        1.000000
X_80_6                        1.000000
X_81_10                       1.000000
X_82_7                        1.000000
X_83_5                        1.000000
X_84_6                        1.000000
X_85_6                        1.000000
X_86_4                        1.000000
X_87_1                        1.000000
X_88_9                        1.000000
X_89_3                        1.000000
X_90_2                        1.000000
X_91_7                        1.000000
X_92_10                       1.000000
X_93_10                       1.000000
X_94_3                        0.000000
X_94_6                        1.000000
X_95_1                        1.000000
X_96_6                        1.000000
X_97_5                        1.000000
X_98_7                        1.000000
X_99_8                        1.000000
X_100_7                       1.000000
X_100_8                      -0.000000
All other variables in the range 1-1001 are 0.
